c 1=x_0 2=x_1 3=x_2 4=W0_0 5=W0_1 6=W0_2 7=y_0 8=y_1 9=y_2 10=W1_0 11=W1_1 12=W1_2 
p cnf 12 28
1 2 3 0
-1 -2 0
-1 -3 0
-2 -3 0
4 5 6 0
-4 -5 0
-4 -6 0
-5 -6 0
-1 4 0
-2 5 0
-3 6 0
7 8 9 0
-7 -8 0
-7 -9 0
-8 -9 0
10 11 12 0
-10 -11 0
-10 -12 0
-11 -12 0
-7 11 0
-8 12 0
-9 10 0
-4 10 0
4 -10 0
-5 11 0
5 -11 0
-6 12 0
6 -12 0
